echo both

# Define temperature parameters
variable	temperature equal 300.0 # Simulation temperature in Kelvin
variable	tempDamp equal 0.1 # Relaxation time of themostat - 0.1 ps

# Define pressure parameters
variable	pressure equal 1.0 # Pressure in bars
variable	pressureDamp equal 1.0 # Relaxation time of the barostat 1 ps

# Define random seed
variable	seed equal 74582

# Simulation setup
units		metal
atom_style	full
variable	out_freq equal 1 # Thermo output frequency
variable	out_freq2 equal 1 # Dump output frequency
neigh_modify    delay 0 every 1 check yes # Neighbor list setup
include		in.CaCO3 # Load initial configuration and force parameters
timestep	0.001 # Timestep 1 fs
thermo          ${out_freq}
thermo_style 	custom step temp pe ke etotal press density lx ly lz
restart 	5000 restart restart2

# Perform minimization
minimize 1.0e-3 1.0e-4 10000 1000

# Write trajectory to file
dump           	myDump all dcd ${out_freq2} out.dcd
dump_modify    	myDump unwrap yes

reset_timestep 	0


fix 1           all npt temp ${temperature} ${temperature} ${tempDamp} &
                iso ${pressure} ${pressure} ${pressureDamp}

velocity        all create ${temperature} ${seed} dist gaussian

run             500000 # 500 ps

unfix 1

# Write final configuration
write_data	data.final

