echo log

# Define temperature parameters
variable	temperature equal 300.0 # Simulation temperature in Kelvin
variable	tempDamp equal 0.1 # Relaxation time of themostat - 0.1 ps

# Define pressure parameters
variable	pressure equal 1.0 # Pressure in bars
variable	pressureDamp equal 1.0 # Relaxation time of the barostat 1 ps

# variable for the different walkers
variable	pid world 0 1 2 3 4 5 6 7 8 9 10 11 12 13 14 15 16 17 18 19 20 21 22 23 24

# Define random seed
variable	seed world 47698905 67421684 64112671 70354376 48416068 18691920 85857508 37573528 27419696 48855059 20162331 50544480 21206210 14204305 23332063 73395765 15601900 55943797 16315487 82750039 64892351 77588214 94491530 28990902 42207894

# Simulation setup
units		metal
atom_style	full
variable	out_freq equal 100 # Thermo output frequency
variable	out_freq2 equal 1000 # Dump output frequency
neigh_modify    delay 0 every 1 check yes # Neighbor list setup
include		in.CaCO3 # Load initial configuration and force parameters
timestep	0.001 # Timestep 1 fs
thermo          ${out_freq}
thermo_style 	custom step temp pe ke etotal press density lx ly lz
restart 	100000 restart restart2

# Write trajectory to file
dump           	myDump all dcd ${out_freq2} out.dcd
dump_modify    	myDump unwrap yes

reset_timestep 	0

timer           timeout 23:50:00 every 1000

fix 1           all plumed plumedfile plumed.dat outfile plumed.out
fix 2           all nvt temp ${temperature} ${temperature} ${tempDamp} tchain 5

velocity        all create ${temperature} ${seed} dist gaussian

run             3000000 upto # 3 ns

unfix 1
unfix 2

# Write final configuration
write_data	data.final
